Version identifier: 20.1.0.0 | 2020-11-10 | 9bedb6d68
Tried aggregator 2 times.
MIP Presolve eliminated 935 rows and 503 columns.
MIP Presolve modified 2304 coefficients.
Aggregator did 112 substitutions.
Reduced MIP has 1362 rows, 1050 columns, and 4473 nonzeros.
Reduced MIP has 198 binaries, 852 generals, 0 SOSs, and 0 indicators.
Presolve time = 0.01 sec. (5.62 ticks)
Found incumbent of value 1376.000000 after 0.03 sec. (11.17 ticks)
Probing fixed 30 vars, tightened 259 bounds.
Probing time = 0.00 sec. (0.88 ticks)
Tried aggregator 1 time.
Detecting symmetries...
MIP Presolve eliminated 585 rows and 30 columns.
MIP Presolve modified 81 coefficients.
Reduced MIP has 777 rows, 1020 columns, and 2538 nonzeros.
Reduced MIP has 292 binaries, 728 generals, 0 SOSs, and 0 indicators.
Presolve time = 0.01 sec. (2.78 ticks)
Probing time = 0.00 sec. (0.24 ticks)
Clique table members: 65.
MIP emphasis: balance optimality and feasibility.
MIP search method: dynamic search.
Parallel mode: deterministic, using up to 24 threads.
Root relaxation solution time = 0.01 sec. (1.92 ticks)

        Nodes                                         Cuts/
   Node  Left     Objective  IInf  Best Integer    Best Bound    ItCnt     Gap

*     0+    0                         1376.0000        0.0000           100.00%
      0     0        0.0000    42     1376.0000        0.0000      251  100.00%
*     0+    0                           11.0000        0.0000           100.00%
      0     0        0.0000    51       11.0000      Cuts: 59      301  100.00%
*     0+    0                            9.0000        0.0000           100.00%
      0     0        0.0000    40        9.0000      Cuts: 37      406  100.00%
      0     0        0.1111   120        9.0000      Cuts: 68      468   98.77%
      0     0        0.3333    88        9.0000      Cuts: 63      501   96.30%
      0     0        0.3333    99        9.0000      Cuts: 23      522   96.30%
*     0+    0                            8.0000        0.3333            95.83%
*     0+    0                            6.0000        0.3333            94.44%
      0     0        cutoff              6.0000        6.0000      522    0.00%
Elapsed time = 1.07 sec. (78.81 ticks, tree = 0.01 MB, solutions = 5)

Clique cuts applied:  4
Cover cuts applied:  8
Implied bound cuts applied:  41
Mixed integer rounding cuts applied:  11
Zero-half cuts applied:  42
Lift and project cuts applied:  4
Gomory fractional cuts applied:  9

Root node processing (before b&c):
  Real time             =    1.07 sec. (78.92 ticks)
Parallel b&c, 24 threads:
  Real time             =    0.00 sec. (0.00 ticks)
  Sync time (average)   =    0.00 sec.
  Wait time (average)   =    0.00 sec.
                          ------------
Total (root+branch&cut) =    1.07 sec. (78.92 ticks)

Solution status = Optimal
Solution LB = 6
Solution UB = 6
Runtime = 1.07564 seconds
	Command being timed: "/home/min/git_repos/CS598MEBProject/CNT-ILP/build/cnt -s 2 ./output/k8_n15/simC_c1_k8_n15_u1_s2_del04.input-left.cnp"
	User time (seconds): 17.73
	System time (seconds): 0.06
	Percent of CPU this job got: 1589%
	Elapsed (wall clock) time (h:mm:ss or m:ss): 0:01.12
	Average shared text size (kbytes): 0
	Average unshared data size (kbytes): 0
	Average stack size (kbytes): 0
	Average total size (kbytes): 0
	Maximum resident set size (kbytes): 90752
	Average resident set size (kbytes): 0
	Major (requiring I/O) page faults: 0
	Minor (reclaiming a frame) page faults: 19757
	Voluntary context switches: 5217
	Involuntary context switches: 2406
	Swaps: 0
	File system inputs: 0
	File system outputs: 16
	Socket messages sent: 0
	Socket messages received: 0
	Signals delivered: 0
	Page size (bytes): 4096
	Exit status: 0
